N = 11;
H = 5;
T = 2;

avail = array3d(1..N, 1..H, 1..T, [0, 3, 6, 8, 0, 3, 2, 6, 3, 2, 2, 2, 5, 4, 10, 4, 10, 7, 5, 8, 9, 4, 2, 6, 8, 5, 6, 10, 2, 2, 1, 7, 8, 9, 7, 2, 10, 1, 3, 8, 0, 0, 4, 10, 9, 0, 8, 10, 0, 9, 7, 10, 5, 0, 7, 5, 2, 2, 4, 1, 7, 7, 1, 3, 1, 0, 10, 6, 2, 6, 1, 3, 5, 7, 3, 1, 3, 4, 6, 2, 3, 7, 3, 8, 6, 7, 4, 4, 4, 1, 1, 6, 9, 1, 0, 5, 6, 1, 9, 5, 5, 8, 7, 2, 2, 10, 2, 0, 3, 5]);

r = array2d(1..H, 1..T, [3, 4, 0, 2, 2, 4, 5, 2, 0, 5]);
